% Instancia 2: Satisfactible

% Formato de entrada problema Planta de Energía:

% Parámetros:

% Nc:       Número de centrales eléctricas. Entero >= 0.
% S:        Número de clientes. Entero >= 0.
% n:        Número de días para satisfacer demanda diaria de clientes. Entero >= 0.
% CaP(i):   Capacidad de producción diaria en megawatts (MW) por central eléctrica con i={0, .., Nc}. Flotante >= 0.
% CoP(i):   Costo de producción de un MW por central eléctrica con i={0, .., Nc}. Flotante >= 0.
% d(s,i):   Demanda diaria en MW de un cliente s={0, .., S} para un día i={0, .., n}. Flotantes >= 0.

Nc = 4;
S = 8;
n = 5;
CaP = [780.0, 950.0, 720.0, 870.0];
CoP = [400.0, 350.0, 340.0, 250.0];
d = array2d (1..S, 1..n,
     [
      300.0, 120.0, 180.0, 0.0, 200.0,  % Cliente1 [Día1, Día2, Día3, Día4, Día5]
      120.0, 130.0, 210.0, 90.0, 100.0, % Cliente2 ..
      100.0, 90.0, 130.0, 600.0, 130.0, % Cliente3 ..
      304.0, 40.0, 180.0, 20.0, 0.0,    % Cliente4 ..
      891.0, 120.0, 89.0, 20.0, 10.0,   % Cliente5 ..
      101.0, 80.0, 280.0, 46.0, 90.0,   % Cliente6 ..
      305.0, 210.0, 110.0, 49.0, 80.0,  % Cliente7 ..
      101.0, 800.0, 114.0, 67.0, 110.0  % Cliente8 ..
     ]
    );
